p tdp 20 113
1 2
1 3
1 4
1 5
1 7
1 8
1 13
1 14
1 15
1 17
1 18
1 19
2 5
2 6
2 7
2 10
2 13
2 14
2 15
2 16
2 18
2 19
2 20
3 4
3 6
3 7
3 10
3 11
3 14
3 15
3 16
3 17
3 18
3 19
3 20
4 6
4 7
4 8
4 9
4 10
4 13
4 14
4 15
4 16
4 17
4 18
4 19
4 20
5 6
5 7
5 8
5 9
5 10
5 11
5 12
5 14
5 15
5 16
5 18
5 20
6 7
6 8
6 10
6 12
6 15
6 17
6 20
7 8
7 9
7 10
7 11
7 14
7 16
7 17
7 18
7 20
8 9
8 11
8 12
8 16
8 17
8 20
9 11
9 15
9 17
9 18
10 14
10 15
10 16
10 18
10 20
11 14
11 15
11 17
11 18
11 19
12 15
12 16
12 19
12 20
13 16
13 19
13 20
14 18
14 19
15 18
15 19
15 20
16 17
17 20
18 19
18 20
19 20
